Problem:    
Rows:       256
Columns:    89 (72 integer, 72 binary)
Non-zeros:  960
Status:     INTEGER OPTIMAL
Objective:  value = 164.034395 (MINimum)

   No.   Row name        Activity     Lower bound   Upper bound
------ ------------    ------------- ------------- -------------
     1 r.5                   1164.03             0               
     2 r.6                  -888.479      -973.311               
     3 r.7                   164.034             0               
     4 r.8                   111.521      -959.557               
     5 r.9                   164.034             0               
     6 r.10                  93.0866      -972.011               
     7 r.11                  1164.03             0               
     8 r.12                 -906.913      -957.887               
     9 r.13                  1164.03             0               
    10 r.14                 -917.823      -952.104               
    11 r.15                  164.034             0               
    12 r.16                  95.4639      -931.142               
    13 r.17                  1164.03             0               
    14 r.18                 -968.373      -974.821               
    15 r.19                  164.034             0               
    16 r.20                  36.6587      -961.281               
    17 r.21                  164.034             0               
    18 r.22                   95.741      -976.191               
    19 r.23                  1164.03             0               
    20 r.24                 -951.404      -965.206               
    21 r.25                  1164.03             0               
    22 r.26                 -998.861      -998.861               
    23 r.27                  164.034             0               
    24 r.28                  11.2021      -987.818               
    25 r.29                  1164.03             0               
    26 r.30                 -835.966      -947.486               
    27 r.31                  164.034             0               
    28 r.32                  164.034      -910.704               
    29 r.33                  164.034             0               
    30 r.34                  164.034      -899.252               
    31 r.35                  1164.03             0               
    32 r.36                 -835.966      -929.052               
    33 r.37                        1             1             = 
    34 r.38                        1             1             = 
    35 r.39                        1             1             = 
    36 r.40                        1             1             = 
    37 r.41                        1             1             = 
    38 r.42                        1             1             = 
    39 r.43                        1             1             = 
    40 r.44                        1             1             = 
    41 r.45                     1001             2               
    42 r.46                    -1001         -1001               
    43 r.47                  1981.57      -972.011               
    44 r.48                     1001             2               
    45 r.49                    -1001         -1001               
    46 r.50                  1981.57      -957.887               
    47 r.51                        2             2               
    48 r.52                       -2         -1001               
    49 r.53                 -29.3431      -952.104               
    50 r.54                     1000             2               
    51 r.55                    -1000         -1001               
    52 r.56                  1983.94      -931.142               
    53 r.57                        2             2               
    54 r.58                       -2         -1001               
    55 r.59                 -79.8936      -974.821               
    56 r.60                     1000             2               
    57 r.61                    -1000         -1001               
    58 r.62                  1925.14      -961.281               
    59 r.63                     1001             2               
    60 r.64                    -1001         -1001               
    61 r.65                  1984.22      -976.191               
    62 r.66                     1001             2               
    63 r.67                    -1001         -1001               
    64 r.68                  1937.08      -965.206               
    65 r.69                 -894.927      -973.311               
    66 r.70                  105.073      -959.557               
    67 r.71                 -894.927      -973.311               
    68 r.72                  105.073      -959.557               
    69 r.73                 -947.486      -947.486               
    70 r.74                  52.5139      -910.704               
    71 r.75                 -947.486      -947.486               
    72 r.76                  52.5139      -910.704               
    73 r.77                     1001             2               
    74 r.78                    -1001         -1001               
    75 r.79                  2052.51      -899.252               
    76 r.80                     1001             2               
    77 r.81                    -1001         -1001               
    78 r.82                  2052.51      -929.052               
    79 r.83                     1001             2               
    80 r.84                    -1001         -1001               
    81 r.85                  2018.43       26.6887               
    82 r.86                     1001             2               
    83 r.87                    -1001         -1001               
    84 r.88                  2018.43       40.4431               
    85 r.89                     1001             2               
    86 r.90                    -1001         -1001               
    87 r.91                  1989.09      -952.104               
    88 r.92                     1001             2               
    89 r.93                    -1001         -1001               
    90 r.94                  2002.38      -931.142               
    91 r.95                     1001             2               
    92 r.96                    -1001         -1001               
    93 r.97                  1938.54      -974.821               
    94 r.98                     1001             2               
    95 r.99                    -1001         -1001               
    96 r.100                 1943.57      -961.281               
    97 r.101                    1000             2               
    98 r.102                   -1000         -1001               
    99 r.103                 2002.65      -976.191               
   100 r.104                       2             2               
   101 r.105                      -2         -1001               
   102 r.106                -44.4904      -965.206               
   103 r.107                 86.6391      -972.011               
   104 r.108                -913.361      -957.887               
   105 r.109                 86.6391      -972.011               
   106 r.110                -913.361      -957.887               
   107 r.111                    1001             2               
   108 r.112                   -1001         -1001               
   109 r.113                 2070.95      -947.486               
   110 r.114                    1001             2               
   111 r.115                   -1001         -1001               
   112 r.116                 2070.95      -910.704               
   113 r.117                 70.9478      -899.252               
   114 r.118                -929.052      -929.052               
   115 r.119                 70.9478      -899.252               
   116 r.120                -929.052      -929.052               
   117 r.121                       2             2               
   118 r.122                      -2         -1001               
   119 r.123                 26.6887       26.6887               
   120 r.124                    1000             2               
   121 r.125                   -1000         -1001               
   122 r.126                 2018.43       40.4431               
   123 r.127                    1001             2               
   124 r.128                   -1001         -1001               
   125 r.129                 2008.25       27.9885               
   126 r.130                    1001             2               
   127 r.131                   -1001         -1001               
   128 r.132                    2000       42.1131               
   129 r.133                -952.104      -952.104               
   130 r.134                 61.1825      -931.142               
   131 r.135                -952.104      -952.104               
   132 r.136                 61.1825      -931.142               
   133 r.137                    1001             2               
   134 r.138                   -1001         -1001               
   135 r.139                 2010.91      -976.191               
   136 r.140                    1001             2               
   137 r.141                   -1001         -1001               
   138 r.142                 1955.51      -965.206               
   139 r.143                 -924.27      -952.104               
   140 r.144                 89.0165      -931.142               
   141 r.145                 -924.27      -952.104               
   142 r.146                 89.0165      -931.142               
   143 r.147                       2             2               
   144 r.148                      -2         -1001               
   145 r.149                -920.797      -947.486               
   146 r.150                    1000             2               
   147 r.151                   -1000         -1001               
   148 r.152                 2070.95      -910.704               
   149 r.153                 79.2026      -899.252               
   150 r.154                -920.797      -929.052               
   151 r.155                 70.9478      -899.252               
   152 r.156                -929.052      -929.052               
   153 r.157                       2             2               
   154 r.158                      -2         -1001               
   155 r.159                 77.2391       26.6887               
   156 r.160                    1000             2               
   157 r.161                   -1000         -1001               
   158 r.162                 2077.24       40.4431               
   159 r.163                    1001             2               
   160 r.164                   -1001         -1001               
   161 r.165                 2058.81       27.9885               
   162 r.166                    1001             2               
   163 r.167                   -1001         -1001               
   164 r.168                 2058.81       42.1131               
   165 r.169                    1001             2               
   166 r.170                   -1001         -1001               
   167 r.171                 2061.46      -976.191               
   168 r.172                    1001             2               
   169 r.173                   -1001         -1001               
   170 r.174                 2014.31      -965.206               
   171 r.175                -974.821      -974.821               
   172 r.176                 30.2112      -961.281               
   173 r.177                -974.821      -974.821               
   174 r.178                 30.2112      -961.281               
   175 r.179                       2             2               
   176 r.180                      -2         -1001               
   177 r.181                -870.247      -947.486               
   178 r.182                    1000             2               
   179 r.183                   -1000         -1001               
   180 r.184                 2129.75      -910.704               
   181 r.185                 129.753      -899.252               
   182 r.186                -870.247      -929.052               
   183 r.187                 129.753      -899.252               
   184 r.188                -870.247      -929.052               
   185 r.189                    1001             2               
   186 r.190                   -1001         -1001               
   187 r.191                 2018.43       26.6887               
   188 r.192                    1001             2               
   189 r.193                   -1001         -1001               
   190 r.194                 2060.55       40.4431               
   191 r.195                    1000             2               
   192 r.196                   -1000         -1001               
   193 r.197                    2000       27.9885               
   194 r.198                       2             2               
   195 r.199                      -2         -1001               
   196 r.200                 42.1131       42.1131               
   197 r.201                    1001             2               
   198 r.202                   -1001         -1001               
   199 r.203                 1989.09        47.896               
   200 r.204                    1001             2               
   201 r.205                   -1001         -1001               
   202 r.206                 2044.49       68.8584               
   203 r.207                    1001             2               
   204 r.208                   -1001         -1001               
   205 r.209                 1938.54       25.1795               
   206 r.210                    1001             2               
   207 r.211                   -1001         -1001               
   208 r.212                 1985.69        38.719               
   209 r.213                 89.2936      -976.191               
   210 r.214                -957.851      -965.206               
   211 r.215                 89.2936      -976.191               
   212 r.216                -957.851      -965.206               
   213 r.217                -929.052      -947.486               
   214 r.218                 70.9478      -910.704               
   215 r.219                -886.939      -947.486               
   216 r.220                 113.061      -910.704               
   217 r.221                 70.9478      -899.252               
   218 r.222                -929.052      -929.052               
   219 r.223                 113.061      -899.252               
   220 r.224                -886.939      -929.052               
   221 r.225                    1001             2               
   222 r.226                   -1001         -1001               
   223 r.227                 1929.05       27.9885               
   224 r.228                    1001             2               
   225 r.229                   -1001         -1001               
   226 r.230                 1929.05       42.1131               
   227 r.231                       2             2               
   228 r.232                      -2         -1001               
   229 r.233                 918.143        47.896               
   230 r.234                    1000             2               
   231 r.235                   -1000         -1001               
   232 r.236                 1931.43       68.8584               
   233 r.237                       2             2               
   234 r.238                      -2         -1001               
   235 r.239                 867.593       25.1795               
   236 r.240                    1000             2               
   237 r.241                   -1000         -1001               
   238 r.242                 1872.62        38.719               
   239 r.243                    1001             2               
   240 r.244                   -1001         -1001               
   241 r.245                    2000      -899.252               
   242 r.246                    1001             2               
   243 r.247                   -1001         -1001               
   244 r.248                    2000      -929.052               
   245 r.249                    1001             2               
   246 r.250                   -1001         -1001               
   247 r.251                 1947.49       26.6887               
   248 r.252                    1001             2               
   249 r.253                   -1001         -1001               
   250 r.254                 1947.49       40.4431               
   251 r.255                    1001             2               
   252 r.256                   -1001         -1001               
   253 r.257                    2000       52.5139               
   254 r.258                    1001             2               
   255 r.259                   -1001         -1001               
   256 r.260                    2000       89.2963               

   No. Column name       Activity     Lower bound   Upper bound
------ ------------    ------------- ------------- -------------
     1 tt                    164.034             0               
     2 s_1_1        *              1             0             1 
     3 t_1_1                 52.5139             0               
     4 s_1_7        *              1             0             1 
     5 s_2_1        *              0             0             1 
     6 t_2_1                 52.5139             0               
     7 s_2_7        *              0             0             1 
     8 s_1_2        *              0             0             1 
     9 t_1_2                 70.9478             0               
    10 s_1_8        *              0             0             1 
    11 s_2_2        *              1             0             1 
    12 t_2_2                 70.9478             0               
    13 s_2_8        *              1             0             1 
    14 s_1_3        *              1             0             1 
    15 t_1_3                 79.2026             0               
    16 s_2_3        *              0             0             1 
    17 t_2_3                 70.9478             0               
    18 s_1_4        *              1             0             1 
    19 t_1_4                 129.753             0               
    20 s_2_4        *              0             0             1 
    21 t_2_4                 129.753             0               
    22 s_1_5        *              0             0             1 
    23 t_1_5                 70.9478             0               
    24 s_2_5        *              1             0             1 
    25 t_2_5                 113.061             0               
    26 s_1_6        *              1             0             1 
    27 t_1_6                 157.587             0               
    28 s_2_6        *              0             0             1 
    29 t_2_6                 157.587             0               
    30 t_1_7                       0             0               
    31 t_2_7                       0             0               
    32 t_1_8                       0             0               
    33 t_2_8                       0             0               
    34 r_1_1_2      *              1             0             1 
    35 u_1_1_2      *              0             0             1 
    36 r_2_1_2      *              1             0             1 
    37 u_2_1_2      *              0             0             1 
    38 r_1_1_3      *              0             0             1 
    39 u_1_1_3      *              0             0             1 
    40 r_2_1_3      *              1             0             1 
    41 u_2_1_3      *              0             0             1 
    42 r_1_1_4      *              0             0             1 
    43 u_1_1_4      *              0             0             1 
    44 r_2_1_4      *              1             0             1 
    45 u_2_1_4      *              0             0             1 
    46 r_1_1_5      *              1             0             1 
    47 u_1_1_5      *              0             0             1 
    48 r_2_1_5      *              1             0             1 
    49 u_2_1_5      *              0             0             1 
    50 r_1_1_8      *              1             0             1 
    51 u_1_1_8      *              0             0             1 
    52 r_2_1_8      *              1             0             1 
    53 u_2_1_8      *              0             0             1 
    54 r_1_2_3      *              1             0             1 
    55 u_1_2_3      *              0             0             1 
    56 r_2_2_3      *              1             0             1 
    57 u_2_2_3      *              0             0             1 
    58 r_1_2_4      *              1             0             1 
    59 u_1_2_4      *              0             0             1 
    60 r_2_2_4      *              1             0             1 
    61 u_2_2_4      *              0             0             1 
    62 r_1_2_5      *              1             0             1 
    63 u_1_2_5      *              0             0             1 
    64 r_2_2_5      *              0             0             1 
    65 u_2_2_5      *              0             0             1 
    66 r_1_2_7      *              1             0             1 
    67 u_1_2_7      *              0             0             1 
    68 r_2_2_7      *              1             0             1 
    69 u_2_2_7      *              0             0             1 
    70 r_1_3_5      *              1             0             1 
    71 u_1_3_5      *              0             0             1 
    72 r_2_3_5      *              1             0             1 
    73 u_2_3_5      *              0             0             1 
    74 r_1_3_7      *              0             0             1 
    75 u_1_3_7      *              1             0             1 
    76 r_2_3_7      *              1             0             1 
    77 u_2_3_7      *              0             0             1 
    78 r_1_4_5      *              1             0             1 
    79 u_1_4_5      *              0             0             1 
    80 r_2_4_5      *              1             0             1 
    81 u_2_4_5      *              0             0             1 
    82 r_1_4_7      *              0             0             1 
    83 u_1_4_7      *              1             0             1 
    84 r_2_4_7      *              1             0             1 
    85 u_2_4_7      *              0             0             1 
    86 r_1_7_8      *              1             0             1 
    87 u_1_7_8      *              0             0             1 
    88 r_2_7_8      *              1             0             1 
    89 u_2_7_8      *              0             0             1 

Integer feasibility conditions:

KKT.PE: max.abs.err = 4.55e-13 on row 125
        max.rel.err = 1.10e-16 on row 138
        High quality

KKT.PB: max.abs.err = 5.44e-13 on row 119
        max.rel.err = 1.96e-14 on row 119
        High quality

End of output
